min: c;

c = 3.26897817248394 * u5_t4_h2 + 3.26897817248394 * u5_t7_h2 + 3.20507637992252 * u5_t4_h3 + 3.20507637992252 * u5_t7_h3 + 3.60235883246768 * u5_t1_h4 + 3.60235883246768 * u5_t3_h4 + 3.60235883246768 * u5_t4_h4 + 3.60235883246768 * u5_t7_h4 + 3.27766864644063 * u5_t1_h5 + 3.27766864644063 * u5_t3_h5 + 3.27766864644063 * u5_t4_h5 + 3.27766864644063 * u5_t7_h5 + 3.45853523993201 * u5_t1_h6 + 3.45853523993201 * u5_t3_h6 + 3.45853523993201 * u5_t4_h6 + 3.45853523993201 * u5_t6_h6 + 3.45853523993201 * u5_t7_h6 + 3.60424152515643 * u5_t1_h7 + 3.60424152515643 * u5_t3_h7 + 3.60424152515643 * u5_t4_h7 + 3.60424152515643 * u5_t6_h7 + 4.88717555368985 * u5_t1_h8 + 4.88717555368985 * u5_t3_h8 + 4.88717555368985 * u5_t4_h8 + 4.88717555368985 * u5_t6_h8 + 5.02990294765473 * u5_t1_h9 + 5.02990294765473 * u5_t3_h9 + 5.02990294765473 * u5_t4_h9 + 5.02990294765473 * u5_t6_h9 + 5.88009999402144 * u5_t1_h10 + 5.88009999402144 * u5_t3_h10 + 5.88009999402144 * u5_t4_h10 + 5.88009999402144 * u5_t6_h10 + 3.74246036431291 * u5_t1_h11 + 3.74246036431291 * u5_t3_h11 + 3.74246036431291 * u5_t4_h11 + 3.74246036431291 * u5_t6_h11 + 6.17543934674761 * u5_t1_h12 + 6.17543934674761 * u5_t3_h12 + 6.17543934674761 * u5_t4_h12 + 6.17543934674761 * u5_t6_h12 + 4.84001282734694 * u5_t1_h13 + 4.84001282734694 * u5_t3_h13 + 4.84001282734694 * u5_t4_h13 + 4.84001282734694 * u5_t6_h13 + 4.84001282734694 * u5_t8_h13 + 5.48966893798375 * u5_t1_h14 + 5.48966893798375 * u5_t3_h14 + 5.48966893798375 * u5_t4_h14 + 5.48966893798375 * u5_t6_h14 + 5.48966893798375 * u5_t8_h14 + 5.89805771643936 * u5_t1_h15 + 5.89805771643936 * u5_t3_h15 + 5.89805771643936 * u5_t4_h15 + 5.89805771643936 * u5_t6_h15 + 5.89805771643936 * u5_t8_h15 + 5.89805771643936 * u5_t9_h15 + 6.3748372064142 * u5_t1_h16 + 6.3748372064142 * u5_t3_h16 + 6.3748372064142 * u5_t4_h16 + 6.3748372064142 * u5_t5_h16 + 6.3748372064142 * u5_t6_h16 + 6.3748372064142 * u5_t8_h16 + 6.3748372064142 * u5_t9_h16 + 6.56311737815061 * u5_t1_h17 + 6.56311737815061 * u5_t5_h17 + 6.56311737815061 * u5_t6_h17 + 6.56311737815061 * u5_t8_h17 + 6.56311737815061 * u5_t9_h17 + 6.56311737815061 * u5_t10_h17 + 6.82191734940292 * u5_t1_h18 + 6.82191734940292 * u5_t2_h18 + 6.82191734940292 * u5_t5_h18 + 6.82191734940292 * u5_t6_h18 + 6.82191734940292 * u5_t9_h18 + 6.82191734940292 * u5_t10_h18 + 5.98934189677075 * u5_t1_h19 + 5.98934189677075 * u5_t2_h19 + 5.98934189677075 * u5_t5_h19 + 5.98934189677075 * u5_t9_h19 + 5.98934189677075 * u5_t10_h19 + 5.22845560362999 * u5_t1_h20 + 5.22845560362999 * u5_t2_h20 + 5.22845560362999 * u5_t5_h20 + 5.22845560362999 * u5_t9_h20 + 5.22845560362999 * u5_t10_h20 + 4.93321541538386 * u5_t2_h21 + 4.93321541538386 * u5_t5_h21 + 4.93321541538386 * u5_t9_h21 + 4.93321541538386 * u5_t10_h21 + 6.01538625271993 * u5_t2_h22 + 6.01538625271993 * u5_t5_h22 + 6.01538625271993 * u5_t9_h22 + 6.01538625271993 * u5_t10_h22 + 5.57847013273712 * u5_t5_h23 + 5.57847013273712 * u5_t9_h23 + 5.57847013273712 * u5_t10_h23;
0 <= u5_t1_h4 <= 1;
0 <= u5_t1_h5 <= 1;
0 <= u5_t1_h6 <= 1;
0 <= u5_t1_h7 <= 1;
0 <= u5_t1_h8 <= 1;
0 <= u5_t1_h9 <= 1;
0 <= u5_t1_h10 <= 1;
0 <= u5_t1_h11 <= 1;
0 <= u5_t1_h12 <= 1;
0 <= u5_t1_h13 <= 1;
0 <= u5_t1_h14 <= 1;
0 <= u5_t1_h15 <= 1;
0 <= u5_t1_h16 <= 1;
0 <= u5_t1_h17 <= 1;
0 <= u5_t1_h18 <= 1;
0 <= u5_t1_h19 <= 1;
0 <= u5_t1_h20 <= 1;
u5_t1_h4 + u5_t1_h5 + u5_t1_h6 + u5_t1_h7 + u5_t1_h8 + u5_t1_h9 + u5_t1_h10 + u5_t1_h11 + u5_t1_h12 + u5_t1_h13 + u5_t1_h14 + u5_t1_h15 + u5_t1_h16 + u5_t1_h17 + u5_t1_h18 + u5_t1_h19 + u5_t1_h20 = 1;
0 <= u5_t2_h18 <= 1;
0 <= u5_t2_h19 <= 1;
0 <= u5_t2_h20 <= 1;
0 <= u5_t2_h21 <= 1;
0 <= u5_t2_h22 <= 1;
u5_t2_h18 + u5_t2_h19 + u5_t2_h20 + u5_t2_h21 + u5_t2_h22 = 3;
0 <= u5_t3_h4 <= 1;
0 <= u5_t3_h5 <= 1;
0 <= u5_t3_h6 <= 1;
0 <= u5_t3_h7 <= 1;
0 <= u5_t3_h8 <= 1;
0 <= u5_t3_h9 <= 1;
0 <= u5_t3_h10 <= 1;
0 <= u5_t3_h11 <= 1;
0 <= u5_t3_h12 <= 1;
0 <= u5_t3_h13 <= 1;
0 <= u5_t3_h14 <= 1;
0 <= u5_t3_h15 <= 1;
0 <= u5_t3_h16 <= 1;
u5_t3_h4 + u5_t3_h5 + u5_t3_h6 + u5_t3_h7 + u5_t3_h8 + u5_t3_h9 + u5_t3_h10 + u5_t3_h11 + u5_t3_h12 + u5_t3_h13 + u5_t3_h14 + u5_t3_h15 + u5_t3_h16 = 1;
0 <= u5_t4_h2 <= 1;
0 <= u5_t4_h3 <= 1;
0 <= u5_t4_h4 <= 1;
0 <= u5_t4_h5 <= 1;
0 <= u5_t4_h6 <= 1;
0 <= u5_t4_h7 <= 1;
0 <= u5_t4_h8 <= 1;
0 <= u5_t4_h9 <= 1;
0 <= u5_t4_h10 <= 1;
0 <= u5_t4_h11 <= 1;
0 <= u5_t4_h12 <= 1;
0 <= u5_t4_h13 <= 1;
0 <= u5_t4_h14 <= 1;
0 <= u5_t4_h15 <= 1;
0 <= u5_t4_h16 <= 1;
u5_t4_h2 + u5_t4_h3 + u5_t4_h4 + u5_t4_h5 + u5_t4_h6 + u5_t4_h7 + u5_t4_h8 + u5_t4_h9 + u5_t4_h10 + u5_t4_h11 + u5_t4_h12 + u5_t4_h13 + u5_t4_h14 + u5_t4_h15 + u5_t4_h16 = 3;
0 <= u5_t5_h16 <= 1;
0 <= u5_t5_h17 <= 1;
0 <= u5_t5_h18 <= 1;
0 <= u5_t5_h19 <= 1;
0 <= u5_t5_h20 <= 1;
0 <= u5_t5_h21 <= 1;
0 <= u5_t5_h22 <= 1;
0 <= u5_t5_h23 <= 1;
u5_t5_h16 + u5_t5_h17 + u5_t5_h18 + u5_t5_h19 + u5_t5_h20 + u5_t5_h21 + u5_t5_h22 + u5_t5_h23 = 2;
0 <= u5_t6_h6 <= 1;
0 <= u5_t6_h7 <= 1;
0 <= u5_t6_h8 <= 1;
0 <= u5_t6_h9 <= 1;
0 <= u5_t6_h10 <= 1;
0 <= u5_t6_h11 <= 1;
0 <= u5_t6_h12 <= 1;
0 <= u5_t6_h13 <= 1;
0 <= u5_t6_h14 <= 1;
0 <= u5_t6_h15 <= 1;
0 <= u5_t6_h16 <= 1;
0 <= u5_t6_h17 <= 1;
0 <= u5_t6_h18 <= 1;
u5_t6_h6 + u5_t6_h7 + u5_t6_h8 + u5_t6_h9 + u5_t6_h10 + u5_t6_h11 + u5_t6_h12 + u5_t6_h13 + u5_t6_h14 + u5_t6_h15 + u5_t6_h16 + u5_t6_h17 + u5_t6_h18 = 2;
0 <= u5_t7_h2 <= 1;
0 <= u5_t7_h3 <= 1;
0 <= u5_t7_h4 <= 1;
0 <= u5_t7_h5 <= 1;
0 <= u5_t7_h6 <= 1;
u5_t7_h2 + u5_t7_h3 + u5_t7_h4 + u5_t7_h5 + u5_t7_h6 = 1;
0 <= u5_t8_h13 <= 1;
0 <= u5_t8_h14 <= 1;
0 <= u5_t8_h15 <= 1;
0 <= u5_t8_h16 <= 1;
0 <= u5_t8_h17 <= 1;
u5_t8_h13 + u5_t8_h14 + u5_t8_h15 + u5_t8_h16 + u5_t8_h17 = 3;
0 <= u5_t9_h15 <= 1;
0 <= u5_t9_h16 <= 1;
0 <= u5_t9_h17 <= 1;
0 <= u5_t9_h18 <= 1;
0 <= u5_t9_h19 <= 1;
0 <= u5_t9_h20 <= 1;
0 <= u5_t9_h21 <= 1;
0 <= u5_t9_h22 <= 1;
0 <= u5_t9_h23 <= 1;
u5_t9_h15 + u5_t9_h16 + u5_t9_h17 + u5_t9_h18 + u5_t9_h19 + u5_t9_h20 + u5_t9_h21 + u5_t9_h22 + u5_t9_h23 = 1;
0 <= u5_t10_h17 <= 1;
0 <= u5_t10_h18 <= 1;
0 <= u5_t10_h19 <= 1;
0 <= u5_t10_h20 <= 1;
0 <= u5_t10_h21 <= 1;
0 <= u5_t10_h22 <= 1;
0 <= u5_t10_h23 <= 1;
u5_t10_h17 + u5_t10_h18 + u5_t10_h19 + u5_t10_h20 + u5_t10_h21 + u5_t10_h22 + u5_t10_h23 = 1;
